unsat
(define-fun skel ((i2 Bool) (i4 Bool) (i3 Bool)) Bool (or (and (not i3) i2) (and (not i4) i3)))
1.23user 0.01system 0:01.24elapsed 99%CPU (0avgtext+0avgdata 32252maxresident)k
0inputs+8outputs (0major+2678minor)pagefaults 0swaps
